(set-info :smt-lib-version 2.6)
(set-info :category "crafted")
(set-logic QF_FFA)
(define-sort FF0 () (_ FiniteField 52435875175126190479447740508185965837690552500527637822603658699938581184513))
(declare-fun mul_n64_alt () FF0)
(declare-fun mul_n34_alt () FF0)
(declare-fun mul_n63_alt () FF0)
(declare-fun mul_n35_alt () FF0)
(declare-fun mul_n62_alt () FF0)
(declare-fun mul_n49_alt () FF0)
(declare-fun mul_n61_alt () FF0)
(declare-fun mul_n52_alt () FF0)
(declare-fun mul_n59_alt () FF0)
(declare-fun mul_n60_alt () FF0)
(declare-fun mul_n37_alt () FF0)
(declare-fun mul_n29_alt () FF0)
(declare-fun mul_n58_alt () FF0)
(declare-fun f_n1_alt () FF0)
(declare-fun mul_n57_alt () FF0)
(declare-fun mul_n56_alt () FF0)
(declare-fun a_n10_alt () FF0)
(declare-fun mul_n17_alt () FF0)
(declare-fun mul_n55_alt () FF0)
(declare-fun h_n7_alt () FF0)
(declare-fun mul_n54_alt () FF0)
(declare-fun d_n4_alt () FF0)
(declare-fun mul_n53_alt () FF0)
(declare-fun mul_n28_alt () FF0)
(declare-fun mul_n11_alt () FF0)
(declare-fun mul_n50_alt () FF0)
(declare-fun mul_n51_alt () FF0)
(declare-fun mul_n45_alt () FF0)
(declare-fun b_n8_alt () FF0)
(declare-fun c_n6_alt () FF0)
(declare-fun mul_n48_alt () FF0)
(declare-fun mul_n47_alt () FF0)
(declare-fun mul_n38_alt () FF0)
(declare-fun mul_n46_alt () FF0)
(declare-fun g_n9_alt () FF0)
(declare-fun mul_n43_alt () FF0)
(declare-fun mul_n44_alt () FF0)
(declare-fun mul_n13_alt () FF0)
(declare-fun mul_n19_alt () FF0)
(declare-fun mul_n18_alt () FF0)
(declare-fun mul_n42_alt () FF0)
(declare-fun mul_n41_alt () FF0)
(declare-fun mul_n40_alt () FF0)
(declare-fun mul_n39_alt () FF0)
(declare-fun e_n2_alt () FF0)
(declare-fun mul_n30_alt () FF0)
(declare-fun mul_n33_alt () FF0)
(declare-fun i_n5_alt () FF0)
(declare-fun mul_n20_alt () FF0)
(declare-fun mul_n36_alt () FF0)
(declare-fun mul_n16_alt () FF0)
(declare-fun mul_n32_alt () FF0)
(declare-fun mul_n31_alt () FF0)
(declare-fun mul_n27_alt () FF0)
(declare-fun mul_n26_alt () FF0)
(declare-fun j_n3_alt () FF0)
(declare-fun mul_n25_alt () FF0)
(declare-fun mul_n24_alt () FF0)
(declare-fun mul_n23_alt () FF0)
(declare-fun mul_n22_alt () FF0)
(declare-fun mul_n21_alt () FF0)
(declare-fun mul_n15_alt () FF0)
(declare-fun mul_n14_alt () FF0)
(declare-fun mul_n12_alt () FF0)
(declare-fun mul_n64 () FF0)
(declare-fun mul_n34 () FF0)
(declare-fun mul_n63 () FF0)
(declare-fun mul_n35 () FF0)
(declare-fun mul_n62 () FF0)
(declare-fun mul_n49 () FF0)
(declare-fun mul_n61 () FF0)
(declare-fun mul_n52 () FF0)
(declare-fun mul_n59 () FF0)
(declare-fun mul_n60 () FF0)
(declare-fun mul_n37 () FF0)
(declare-fun mul_n29 () FF0)
(declare-fun mul_n58 () FF0)
(declare-fun f_n1 () FF0)
(declare-fun mul_n57 () FF0)
(declare-fun mul_n56 () FF0)
(declare-fun a_n10 () FF0)
(declare-fun mul_n17 () FF0)
(declare-fun mul_n55 () FF0)
(declare-fun h_n7 () FF0)
(declare-fun mul_n54 () FF0)
(declare-fun d_n4 () FF0)
(declare-fun mul_n53 () FF0)
(declare-fun mul_n28 () FF0)
(declare-fun mul_n11 () FF0)
(declare-fun mul_n50 () FF0)
(declare-fun mul_n51 () FF0)
(declare-fun mul_n45 () FF0)
(declare-fun b_n8 () FF0)
(declare-fun c_n6 () FF0)
(declare-fun mul_n48 () FF0)
(declare-fun mul_n47 () FF0)
(declare-fun mul_n38 () FF0)
(declare-fun mul_n46 () FF0)
(declare-fun g_n9 () FF0)
(declare-fun mul_n43 () FF0)
(declare-fun mul_n44 () FF0)
(declare-fun mul_n13 () FF0)
(declare-fun mul_n19 () FF0)
(declare-fun mul_n18 () FF0)
(declare-fun mul_n42 () FF0)
(declare-fun mul_n41 () FF0)
(declare-fun mul_n40 () FF0)
(declare-fun mul_n39 () FF0)
(declare-fun e_n2 () FF0)
(declare-fun mul_n30 () FF0)
(declare-fun mul_n33 () FF0)
(declare-fun i_n5 () FF0)
(declare-fun mul_n20 () FF0)
(declare-fun mul_n36 () FF0)
(declare-fun mul_n16 () FF0)
(declare-fun mul_n32 () FF0)
(declare-fun mul_n31 () FF0)
(declare-fun mul_n27 () FF0)
(declare-fun mul_n26 () FF0)
(declare-fun j_n3 () FF0)
(declare-fun mul_n25 () FF0)
(declare-fun mul_n24 () FF0)
(declare-fun mul_n23 () FF0)
(declare-fun mul_n22 () FF0)
(declare-fun mul_n21 () FF0)
(declare-fun mul_n15 () FF0)
(declare-fun mul_n14 () FF0)
(declare-fun mul_n12 () FF0)
(declare-fun return_n0_alt () FF0)
(declare-fun return_n0 () FF0)
(assert 
  (let ((let0 mul_n64_alt))
  (let ((let1 mul_n34_alt))
  (let ((let2 mul_n63_alt))
  (let ((let3 (ff.mul let2 let1)))
  (let ((let4 (= let3 let0)))
  (let ((let5 (as ff1 FF0)))
  (let ((let6 (as ff52435875175126190479447740508185965837690552500527637822603658699938581184512 FF0)))
  (let ((let7 mul_n35_alt))
  (let ((let8 (ff.mul let7 let6)))
  (let ((let9 (ff.add let8 let5)))
  (let ((let10 mul_n62_alt))
  (let ((let11 (ff.mul let10 let9)))
  (let ((let12 (= let11 let2)))
  (let ((let13 mul_n49_alt))
  (let ((let14 (ff.mul let13 let6)))
  (let ((let15 (ff.add let14 let5)))
  (let ((let16 mul_n61_alt))
  (let ((let17 (ff.mul let16 let15)))
  (let ((let18 (= let17 let10)))
  (let ((let19 mul_n52_alt))
  (let ((let20 (ff.mul let19 let6)))
  (let ((let21 (ff.add let20 let5)))
  (let ((let22 mul_n59_alt))
  (let ((let23 mul_n60_alt))
  (let ((let24 (ff.add let23 let22)))
  (let ((let25 (ff.mul let24 let21)))
  (let ((let26 (= let25 let16)))
  (let ((let27 (ff.mul let22 let6)))
  (let ((let28 mul_n37_alt))
  (let ((let29 (ff.add let28 let27)))
  (let ((let30 (ff.mul let22 let29)))
  (let ((let31 (= let30 let23)))
  (let ((let32 mul_n29_alt))
  (let ((let33 (ff.mul let32 let6)))
  (let ((let34 (ff.add let33 let5)))
  (let ((let35 mul_n58_alt))
  (let ((let36 (ff.mul let35 let34)))
  (let ((let37 (= let36 let22)))
  (let ((let38 f_n1_alt))
  (let ((let39 (ff.mul let38 let6)))
  (let ((let40 (ff.add let39 let5)))
  (let ((let41 mul_n57_alt))
  (let ((let42 (ff.mul let41 let40)))
  (let ((let43 (= let42 let35)))
  (let ((let44 mul_n56_alt))
  (let ((let45 (ff.mul let44 let38)))
  (let ((let46 (= let45 let41)))
  (let ((let47 a_n10_alt))
  (let ((let48 mul_n17_alt))
  (let ((let49 (ff.add let48 let47)))
  (let ((let50 mul_n55_alt))
  (let ((let51 (ff.mul let50 let49)))
  (let ((let52 (= let51 let44)))
  (let ((let53 h_n7_alt))
  (let ((let54 mul_n54_alt))
  (let ((let55 (ff.mul let54 let53)))
  (let ((let56 (= let55 let50)))
  (let ((let57 d_n4_alt))
  (let ((let58 mul_n53_alt))
  (let ((let59 (ff.mul let58 let57)))
  (let ((let60 (= let59 let54)))
  (let ((let61 mul_n28_alt))
  (let ((let62 (ff.mul let40 let61)))
  (let ((let63 (= let62 let58)))
  (let ((let64 mul_n11_alt))
  (let ((let65 mul_n50_alt))
  (let ((let66 (ff.mul let65 let6)))
  (let ((let67 (ff.add let66 let64)))
  (let ((let68 mul_n51_alt))
  (let ((let69 (ff.mul let68 let67)))
  (let ((let70 (= let69 let19)))
  (let ((let71 mul_n45_alt))
  (let ((let72 (ff.mul let1 let71)))
  (let ((let73 (= let72 let68)))
  (let ((let74 b_n8_alt))
  (let ((let75 (ff.mul let74 let6)))
  (let ((let76 (ff.add let75 let64)))
  (let ((let77 (ff.mul let71 let6)))
  (let ((let78 (ff.add let77 let5)))
  (let ((let79 (ff.mul let78 let76)))
  (let ((let80 (= let79 let65)))
  (let ((let81 c_n6_alt))
  (let ((let82 (ff.mul let81 let6)))
  (let ((let83 (ff.add let82 let5)))
  (let ((let84 mul_n48_alt))
  (let ((let85 (ff.mul let84 let83)))
  (let ((let86 (= let85 let13)))
  (let ((let87 (ff.mul let28 let6)))
  (let ((let88 (ff.add let87 let5)))
  (let ((let89 mul_n47_alt))
  (let ((let90 (ff.mul let89 let88)))
  (let ((let91 (= let90 let84)))
  (let ((let92 mul_n38_alt))
  (let ((let93 (ff.mul let92 let6)))
  (let ((let94 mul_n46_alt))
  (let ((let95 (ff.mul let94 let6)))
  (let ((let96 g_n9_alt))
  (let ((let97 (ff.mul let96 let6)))
  (let ((let98 (ff.add let97 let95 let93 let5)))
  (let ((let99 (ff.mul let74 let98)))
  (let ((let100 (= let99 let89)))
  (let ((let101 (ff.add let97 let93 let53)))
  (let ((let102 (ff.mul let78 let101)))
  (let ((let103 (= let102 let94)))
  (let ((let104 mul_n43_alt))
  (let ((let105 mul_n44_alt))
  (let ((let106 (ff.mul let105 let104)))
  (let ((let107 (= let106 let71)))
  (let ((let108 mul_n13_alt))
  (let ((let109 (ff.mul let108 let104)))
  (let ((let110 (= let109 let105)))
  (let ((let111 mul_n19_alt))
  (let ((let112 (ff.mul let111 let6)))
  (let ((let113 mul_n18_alt))
  (let ((let114 (ff.add let108 let113 let81 let112)))
  (let ((let115 mul_n42_alt))
  (let ((let116 (ff.mul let115 let114)))
  (let ((let117 (= let116 let104)))
  (let ((let118 mul_n41_alt))
  (let ((let119 (ff.mul let118 let114)))
  (let ((let120 (= let119 let115)))
  (let ((let121 (ff.add let97 let93 let5)))
  (let ((let122 mul_n40_alt))
  (let ((let123 (ff.mul let122 let121)))
  (let ((let124 (= let123 let118)))
  (let ((let125 mul_n39_alt))
  (let ((let126 (ff.mul let125 let121)))
  (let ((let127 (= let126 let122)))
  (let ((let128 e_n2_alt))
  (let ((let129 (ff.mul let128 let6)))
  (let ((let130 mul_n30_alt))
  (let ((let131 (ff.mul let130 let6)))
  (let ((let132 (ff.add let131 let129 let5)))
  (let ((let133 (ff.mul let132 let81)))
  (let ((let134 (= let133 let125)))
  (let ((let135 mul_n33_alt))
  (let ((let136 (ff.mul let135 let6)))
  (let ((let137 (ff.add let136 let97 let5)))
  (let ((let138 (ff.mul let53 let6)))
  (let ((let139 i_n5_alt))
  (let ((let140 (ff.mul let139 let6)))
  (let ((let141 mul_n20_alt))
  (let ((let142 (ff.add let141 let140 let138 let5)))
  (let ((let143 (ff.mul let142 let137)))
  (let ((let144 (= let143 let92)))
  (let ((let145 (ff.add let108 let113)))
  (let ((let146 mul_n36_alt))
  (let ((let147 (ff.mul let146 let145)))
  (let ((let148 (= let147 let28)))
  (let ((let149 (ff.mul let108 let6)))
  (let ((let150 (ff.add let149 let5)))
  (let ((let151 mul_n16_alt))
  (let ((let152 (ff.mul let151 let6)))
  (let ((let153 (ff.add let152 let5)))
  (let ((let154 (ff.mul let153 let150)))
  (let ((let155 (= let154 let146)))
  (let ((let156 (ff.mul let61 let108)))
  (let ((let157 (= let156 let7)))
  (let ((let158 (ff.mul let34 let135)))
  (let ((let159 (= let158 let1)))
  (let ((let160 (ff.mul let47 let6)))
  (let ((let161 (ff.add let160 let5)))
  (let ((let162 mul_n32_alt))
  (let ((let163 (ff.mul let162 let161)))
  (let ((let164 (= let163 let135)))
  (let ((let165 mul_n31_alt))
  (let ((let166 (ff.mul let165 let32)))
  (let ((let167 (= let166 let162)))
  (let ((let168 (ff.mul let64 let132)))
  (let ((let169 (= let168 let165)))
  (let ((let170 (ff.add let47 let129)))
  (let ((let171 (ff.mul let108 let170)))
  (let ((let172 (= let171 let130)))
  (let ((let173 (ff.mul let61 let6)))
  (let ((let174 (ff.add let173 let5)))
  (let ((let175 (ff.mul let153 let174)))
  (let ((let176 (= let175 let32)))
  (let ((let177 (ff.add let97 let5)))
  (let ((let178 mul_n27_alt))
  (let ((let179 (ff.mul let178 let177)))
  (let ((let180 (= let179 let61)))
  (let ((let181 mul_n26_alt))
  (let ((let182 (ff.mul let181 let153)))
  (let ((let183 (= let182 let178)))
  (let ((let184 j_n3_alt))
  (let ((let185 mul_n25_alt))
  (let ((let186 (ff.mul let185 let184)))
  (let ((let187 (= let186 let181)))
  (let ((let188 mul_n24_alt))
  (let ((let189 (ff.mul let188 let177)))
  (let ((let190 (= let189 let185)))
  (let ((let191 (ff.mul let113 let6)))
  (let ((let192 (ff.add let149 let191 let82 let111 let5)))
  (let ((let193 mul_n23_alt))
  (let ((let194 (ff.mul let193 let192)))
  (let ((let195 (= let194 let188)))
  (let ((let196 mul_n22_alt))
  (let ((let197 (ff.mul let196 let142)))
  (let ((let198 (= let197 let193)))
  (let ((let199 mul_n21_alt))
  (let ((let200 (ff.mul let199 let128)))
  (let ((let201 (= let200 let196)))
  (let ((let202 (ff.mul let57 let145)))
  (let ((let203 (= let202 let199)))
  (let ((let204 (as ff2 FF0)))
  (let ((let205 (ff.mul let139 let204)))
  (let ((let206 (ff.mul let205 let53)))
  (let ((let207 (= let206 let141)))
  (let ((let208 (ff.mul let113 let204)))
  (let ((let209 (ff.mul let108 let204)))
  (let ((let210 (ff.add let209 let208)))
  (let ((let211 (ff.mul let210 let81)))
  (let ((let212 (= let211 let111)))
  (let ((let213 (ff.add let48 let47 let149)))
  (let ((let214 (ff.mul let74 let213)))
  (let ((let215 (= let214 let113)))
  (let ((let216 (ff.add let57 let160)))
  (let ((let217 (ff.mul let38 let216)))
  (let ((let218 (= let217 let48)))
  (let ((let219 (ff.mul let81 let177)))
  (let ((let220 (= let219 let151)))
  (let ((let221 mul_n15_alt))
  (let ((let222 mul_n14_alt))
  (let ((let223 (ff.mul let222 let6)))
  (let ((let224 (ff.add let223 let5)))
  (let ((let225 (ff.mul let224 let150)))
  (let ((let226 (= let225 let221)))
  (let ((let227 (ff.mul let184 let6)))
  (let ((let228 (ff.add let227 let5)))
  (let ((let229 (ff.mul let74 let228)))
  (let ((let230 (= let229 let222)))
  (let ((let231 mul_n12_alt))
  (let ((let232 (ff.mul let231 let184)))
  (let ((let233 (= let232 let108)))
  (let ((let234 (ff.mul let64 let6)))
  (let ((let235 (ff.add let234 let5)))
  (let ((let236 (ff.mul let139 let235)))
  (let ((let237 (= let236 let231)))
  (let ((let238 (ff.add let75 let5)))
  (let ((let239 (ff.mul let128 let238)))
  (let ((let240 (= let239 let64)))
  (let ((let241 (and let240 let237 let233 let230 let226 let220 let218 let215 let212 let207 let203 let201 let198 let195 let190 let187 let183 let180 let176 let172 let169 let167 let164 let159 let157 let155 let148 let144 let134 let127 let124 let120 let117 let110 let107 let103 let100 let91 let86 let80 let73 let70 let63 let60 let56 let52 let46 let43 let37 let31 let26 let18 let12 let4)))
  (let ((let242 mul_n64))
  (let ((let243 mul_n34))
  (let ((let244 mul_n63))
  (let ((let245 (ff.mul let244 let243)))
  (let ((let246 (= let245 let242)))
  (let ((let247 mul_n35))
  (let ((let248 (ff.mul let247 let6)))
  (let ((let249 (ff.add let248 let5)))
  (let ((let250 mul_n62))
  (let ((let251 (ff.mul let250 let249)))
  (let ((let252 (= let251 let244)))
  (let ((let253 mul_n49))
  (let ((let254 (ff.mul let253 let6)))
  (let ((let255 (ff.add let254 let5)))
  (let ((let256 mul_n61))
  (let ((let257 (ff.mul let256 let255)))
  (let ((let258 (= let257 let250)))
  (let ((let259 mul_n52))
  (let ((let260 (ff.mul let259 let6)))
  (let ((let261 (ff.add let260 let5)))
  (let ((let262 mul_n59))
  (let ((let263 mul_n60))
  (let ((let264 (ff.add let263 let262)))
  (let ((let265 (ff.mul let264 let261)))
  (let ((let266 (= let265 let256)))
  (let ((let267 (ff.mul let262 let6)))
  (let ((let268 mul_n37))
  (let ((let269 (ff.add let268 let267)))
  (let ((let270 (ff.mul let262 let269)))
  (let ((let271 (= let270 let263)))
  (let ((let272 mul_n29))
  (let ((let273 (ff.mul let272 let6)))
  (let ((let274 (ff.add let273 let5)))
  (let ((let275 mul_n58))
  (let ((let276 (ff.mul let275 let274)))
  (let ((let277 (= let276 let262)))
  (let ((let278 f_n1))
  (let ((let279 (ff.mul let278 let6)))
  (let ((let280 (ff.add let279 let5)))
  (let ((let281 mul_n57))
  (let ((let282 (ff.mul let281 let280)))
  (let ((let283 (= let282 let275)))
  (let ((let284 mul_n56))
  (let ((let285 (ff.mul let284 let278)))
  (let ((let286 (= let285 let281)))
  (let ((let287 a_n10))
  (let ((let288 mul_n17))
  (let ((let289 (ff.add let288 let287)))
  (let ((let290 mul_n55))
  (let ((let291 (ff.mul let290 let289)))
  (let ((let292 (= let291 let284)))
  (let ((let293 h_n7))
  (let ((let294 mul_n54))
  (let ((let295 (ff.mul let294 let293)))
  (let ((let296 (= let295 let290)))
  (let ((let297 d_n4))
  (let ((let298 mul_n53))
  (let ((let299 (ff.mul let298 let297)))
  (let ((let300 (= let299 let294)))
  (let ((let301 mul_n28))
  (let ((let302 (ff.mul let280 let301)))
  (let ((let303 (= let302 let298)))
  (let ((let304 mul_n11))
  (let ((let305 mul_n50))
  (let ((let306 (ff.mul let305 let6)))
  (let ((let307 (ff.add let306 let304)))
  (let ((let308 mul_n51))
  (let ((let309 (ff.mul let308 let307)))
  (let ((let310 (= let309 let259)))
  (let ((let311 mul_n45))
  (let ((let312 (ff.mul let243 let311)))
  (let ((let313 (= let312 let308)))
  (let ((let314 b_n8))
  (let ((let315 (ff.mul let314 let6)))
  (let ((let316 (ff.add let315 let304)))
  (let ((let317 (ff.mul let311 let6)))
  (let ((let318 (ff.add let317 let5)))
  (let ((let319 (ff.mul let318 let316)))
  (let ((let320 (= let319 let305)))
  (let ((let321 c_n6))
  (let ((let322 (ff.mul let321 let6)))
  (let ((let323 (ff.add let322 let5)))
  (let ((let324 mul_n48))
  (let ((let325 (ff.mul let324 let323)))
  (let ((let326 (= let325 let253)))
  (let ((let327 (ff.mul let268 let6)))
  (let ((let328 (ff.add let327 let5)))
  (let ((let329 mul_n47))
  (let ((let330 (ff.mul let329 let328)))
  (let ((let331 (= let330 let324)))
  (let ((let332 mul_n38))
  (let ((let333 (ff.mul let332 let6)))
  (let ((let334 mul_n46))
  (let ((let335 (ff.mul let334 let6)))
  (let ((let336 g_n9))
  (let ((let337 (ff.mul let336 let6)))
  (let ((let338 (ff.add let337 let335 let333 let5)))
  (let ((let339 (ff.mul let314 let338)))
  (let ((let340 (= let339 let329)))
  (let ((let341 (ff.add let337 let333 let293)))
  (let ((let342 (ff.mul let318 let341)))
  (let ((let343 (= let342 let334)))
  (let ((let344 mul_n43))
  (let ((let345 mul_n44))
  (let ((let346 (ff.mul let345 let344)))
  (let ((let347 (= let346 let311)))
  (let ((let348 mul_n13))
  (let ((let349 (ff.mul let348 let344)))
  (let ((let350 (= let349 let345)))
  (let ((let351 mul_n19))
  (let ((let352 (ff.mul let351 let6)))
  (let ((let353 mul_n18))
  (let ((let354 (ff.add let348 let353 let321 let352)))
  (let ((let355 mul_n42))
  (let ((let356 (ff.mul let355 let354)))
  (let ((let357 (= let356 let344)))
  (let ((let358 mul_n41))
  (let ((let359 (ff.mul let358 let354)))
  (let ((let360 (= let359 let355)))
  (let ((let361 (ff.add let337 let333 let5)))
  (let ((let362 mul_n40))
  (let ((let363 (ff.mul let362 let361)))
  (let ((let364 (= let363 let358)))
  (let ((let365 mul_n39))
  (let ((let366 (ff.mul let365 let361)))
  (let ((let367 (= let366 let362)))
  (let ((let368 e_n2))
  (let ((let369 (ff.mul let368 let6)))
  (let ((let370 mul_n30))
  (let ((let371 (ff.mul let370 let6)))
  (let ((let372 (ff.add let371 let369 let5)))
  (let ((let373 (ff.mul let372 let321)))
  (let ((let374 (= let373 let365)))
  (let ((let375 mul_n33))
  (let ((let376 (ff.mul let375 let6)))
  (let ((let377 (ff.add let376 let337 let5)))
  (let ((let378 (ff.mul let293 let6)))
  (let ((let379 i_n5))
  (let ((let380 (ff.mul let379 let6)))
  (let ((let381 mul_n20))
  (let ((let382 (ff.add let381 let380 let378 let5)))
  (let ((let383 (ff.mul let382 let377)))
  (let ((let384 (= let383 let332)))
  (let ((let385 (ff.add let348 let353)))
  (let ((let386 mul_n36))
  (let ((let387 (ff.mul let386 let385)))
  (let ((let388 (= let387 let268)))
  (let ((let389 (ff.mul let348 let6)))
  (let ((let390 (ff.add let389 let5)))
  (let ((let391 mul_n16))
  (let ((let392 (ff.mul let391 let6)))
  (let ((let393 (ff.add let392 let5)))
  (let ((let394 (ff.mul let393 let390)))
  (let ((let395 (= let394 let386)))
  (let ((let396 (ff.mul let301 let348)))
  (let ((let397 (= let396 let247)))
  (let ((let398 (ff.mul let274 let375)))
  (let ((let399 (= let398 let243)))
  (let ((let400 (ff.mul let287 let6)))
  (let ((let401 (ff.add let400 let5)))
  (let ((let402 mul_n32))
  (let ((let403 (ff.mul let402 let401)))
  (let ((let404 (= let403 let375)))
  (let ((let405 mul_n31))
  (let ((let406 (ff.mul let405 let272)))
  (let ((let407 (= let406 let402)))
  (let ((let408 (ff.mul let304 let372)))
  (let ((let409 (= let408 let405)))
  (let ((let410 (ff.add let287 let369)))
  (let ((let411 (ff.mul let348 let410)))
  (let ((let412 (= let411 let370)))
  (let ((let413 (ff.mul let301 let6)))
  (let ((let414 (ff.add let413 let5)))
  (let ((let415 (ff.mul let393 let414)))
  (let ((let416 (= let415 let272)))
  (let ((let417 (ff.add let337 let5)))
  (let ((let418 mul_n27))
  (let ((let419 (ff.mul let418 let417)))
  (let ((let420 (= let419 let301)))
  (let ((let421 mul_n26))
  (let ((let422 (ff.mul let421 let393)))
  (let ((let423 (= let422 let418)))
  (let ((let424 j_n3))
  (let ((let425 mul_n25))
  (let ((let426 (ff.mul let425 let424)))
  (let ((let427 (= let426 let421)))
  (let ((let428 mul_n24))
  (let ((let429 (ff.mul let428 let417)))
  (let ((let430 (= let429 let425)))
  (let ((let431 (ff.mul let353 let6)))
  (let ((let432 (ff.add let389 let431 let322 let351 let5)))
  (let ((let433 mul_n23))
  (let ((let434 (ff.mul let433 let432)))
  (let ((let435 (= let434 let428)))
  (let ((let436 mul_n22))
  (let ((let437 (ff.mul let436 let382)))
  (let ((let438 (= let437 let433)))
  (let ((let439 mul_n21))
  (let ((let440 (ff.mul let439 let368)))
  (let ((let441 (= let440 let436)))
  (let ((let442 (ff.mul let297 let385)))
  (let ((let443 (= let442 let439)))
  (let ((let444 (ff.mul let379 let204)))
  (let ((let445 (ff.mul let444 let293)))
  (let ((let446 (= let445 let381)))
  (let ((let447 (ff.mul let353 let204)))
  (let ((let448 (ff.mul let348 let204)))
  (let ((let449 (ff.add let448 let447)))
  (let ((let450 (ff.mul let449 let321)))
  (let ((let451 (= let450 let351)))
  (let ((let452 (ff.add let288 let287 let389)))
  (let ((let453 (ff.mul let314 let452)))
  (let ((let454 (= let453 let353)))
  (let ((let455 (ff.add let297 let400)))
  (let ((let456 (ff.mul let278 let455)))
  (let ((let457 (= let456 let288)))
  (let ((let458 (ff.mul let321 let417)))
  (let ((let459 (= let458 let391)))
  (let ((let460 mul_n15))
  (let ((let461 mul_n14))
  (let ((let462 (ff.mul let461 let6)))
  (let ((let463 (ff.add let462 let5)))
  (let ((let464 (ff.mul let463 let390)))
  (let ((let465 (= let464 let460)))
  (let ((let466 (ff.mul let424 let6)))
  (let ((let467 (ff.add let466 let5)))
  (let ((let468 (ff.mul let314 let467)))
  (let ((let469 (= let468 let461)))
  (let ((let470 mul_n12))
  (let ((let471 (ff.mul let470 let424)))
  (let ((let472 (= let471 let348)))
  (let ((let473 (ff.mul let304 let6)))
  (let ((let474 (ff.add let473 let5)))
  (let ((let475 (ff.mul let379 let474)))
  (let ((let476 (= let475 let470)))
  (let ((let477 (ff.add let315 let5)))
  (let ((let478 (ff.mul let368 let477)))
  (let ((let479 (= let478 let304)))
  (let ((let480 (and let479 let476 let472 let469 let465 let459 let457 let454 let451 let446 let443 let441 let438 let435 let430 let427 let423 let420 let416 let412 let409 let407 let404 let399 let397 let395 let388 let384 let374 let367 let364 let360 let357 let350 let347 let343 let340 let331 let326 let320 let313 let310 let303 let300 let296 let292 let286 let283 let277 let271 let266 let258 let252 let246)))
  (let ((let481 return_n0_alt))
  (let ((let482 return_n0))
  (let ((let483 (= let482 let481)))
  (let ((let484 (not let483)))
  (let ((let485 (= let368 let128)))
  (let ((let486 (= let321 let81)))
  (let ((let487 (= let336 let96)))
  (let ((let488 (= let287 let47)))
  (let ((let489 (= let297 let57)))
  (let ((let490 (= let293 let53)))
  (let ((let491 (= let278 let38)))
  (let ((let492 (= let379 let139)))
  (let ((let493 (= let424 let184)))
  (let ((let494 (= let314 let74)))
  (let ((let495 (and let494 let493 let492 let491 let490 let489 let488 let487 let486 let485)))
  (let ((let496 (and let495 let484 let480 let241)))
  let496
)))))))))))))))))))))))))))))))))))))))))))))))))))))))))))))))))))))))))))))))))))))))))))))))))))))))))))))))))))))))))))))))))))))))))))))))))))))))))))))))))))))))))))))))))))))))))))))))))))))))))))))))))))))))))))))))))))))))))))))))))))))))))))))))))))))))))))))))))))))))))))))))))))))))))))))))))))))))))))))))))))))))))))))))))))))))))))))))))))))))))))))))))))))))))))))))))))))))))))))))))))))))))))))))))))))))))))))))))))))))))))))))))))))))))))))))))))))))))))))))))))))))))))))))))
)
(check-sat)
